language ESSENCE' 1.0

letting jobs = 102
letting horizon = 823
letting resourcesRenew = 2
letting resourcesNonrenew = 2
letting resourceLimits = [17, 16, 388, 437]
letting successors = [[2, 3, 4, 6, 7, 8, 9, 10, 11, 12, 15, 17, 23], [47, 33, 30, 21, 18, 16, 13, 5], [55, 54, 48, 47, 42, 40, 34, 33, 28, 26, 19, 16, 14], [51, 47, 43, 41, 40, 36, 34, 32, 30, 29, 27, 26, 25, 24, 22], [52, 50, 42, 39, 36, 32, 29, 25, 22, 20, 19], [55, 52, 51, 47, 43, 33, 32, 30, 21, 16], [66, 55, 52, 51, 50, 47, 45, 43, 41, 38, 37, 36, 35, 32, 31, 29], [52, 51, 47, 46, 34, 33, 25, 24, 16], [66, 52, 51, 50, 43, 42, 39, 38, 37, 36, 35, 32, 29, 21], [55, 53, 52, 51, 49, 46, 41, 40, 34, 33, 32, 26, 24], [61, 57, 54, 51, 50, 49, 46, 45, 42, 41, 40, 36, 34, 26], [56, 55, 51, 50, 48, 46, 41, 36, 25, 21], [57, 54, 53, 51, 50, 49, 48, 46, 45, 41, 26], [69, 66, 61, 57, 53, 52, 49, 46, 45, 44, 43, 38, 37], [57, 52, 51, 49, 45, 42, 40, 37, 36, 33], [69, 61, 58, 41, 37, 29, 27], [61, 57, 56, 55, 54, 53, 49, 45, 44, 40, 34], [69, 68, 66, 55, 50, 45, 43, 42, 32], [86, 66, 64, 53, 51, 45, 43, 37, 35], [58, 54, 49, 45, 40, 38, 34], [79, 69, 68, 65, 63, 62, 59, 58, 57, 54, 49, 45, 44], [86, 77, 69, 68, 66, 65, 64, 63, 59, 58, 48, 45], [68, 65, 64, 63, 62, 61, 55, 49, 45, 40], [76, 68, 63, 45, 44, 38], [79, 69, 68, 65, 63, 62, 60, 57, 54, 49, 44], [101, 79, 69, 67, 59, 58, 44, 37], [68, 66, 59, 56, 50, 45, 44], [101, 78, 76, 71, 69, 68, 67, 64, 61, 38], [101, 73, 68, 62, 60, 57, 53, 49, 44], [101, 86, 78, 77, 73, 69, 68, 65, 63, 48, 46], [78, 76, 69, 63, 62, 59, 56, 54, 46], [101, 86, 79, 78, 74, 73, 65, 64, 60, 58, 48], [101, 83, 71, 68, 63, 61, 38], [85, 78, 73, 69, 68, 67, 66, 65, 64, 63, 62, 59], [101, 77, 76, 73, 72, 70, 69, 68, 67, 65, 60, 59], [84, 76, 68, 67, 44], [83, 75, 74, 71, 68, 63, 62, 56], [100, 85, 79, 75, 72, 62, 59, 56], [95, 85, 77, 70, 64, 59, 54], [101, 100, 99, 86, 84, 82, 77, 76, 75, 74, 73, 72, 70, 69], [101, 100, 99, 85, 84, 78, 74, 72, 70, 67, 60], [101, 100, 86, 77, 75, 74, 73, 71, 63, 62], [85, 73, 72, 62, 59, 58], [100, 99, 98, 86, 85, 80, 77, 75, 74, 72, 71, 64], [101, 85, 81, 78, 73, 70, 67, 60], [99, 85, 84, 75, 74, 70, 60], [100, 99, 97, 86, 84, 76, 74, 73, 63], [97, 85, 76, 72, 62, 61], [99, 98, 97, 96, 93, 86, 84, 83, 82, 81, 77, 76, 75, 72], [100, 98, 93, 84, 82, 80, 79, 77, 76, 75, 74, 72], [101, 99, 96, 93, 92, 85, 84, 82, 80, 76, 75, 69], [100, 99, 98, 97, 92, 80, 76, 75, 74, 73, 72], [98, 93, 91, 83, 81, 80, 79, 78, 71, 67], [101, 100, 99, 92, 84, 83, 81, 80, 73, 67], [99, 96, 95, 92, 91, 76, 75, 73, 71, 70], [99, 98, 97, 96, 81, 77, 73, 65], [98, 93, 92, 91, 90, 83, 81, 80, 67], [96, 95, 93, 81, 80, 76, 75, 71], [99, 94, 93, 92, 88, 87, 84, 82, 74], [95, 94, 93, 92, 91, 83, 80, 71], [100, 99, 96, 95, 90, 87, 84, 81, 80], [99, 94, 93, 92, 91, 87, 70], [98, 94, 93, 92, 90, 80, 72], [96, 93, 92, 90, 89, 88, 83], [95, 94, 91, 90, 89, 88, 87], [98, 96, 93, 91, 88, 81], [97, 96, 89, 88, 75], [100, 98, 95, 92, 90, 89], [97, 95, 89, 88, 83], [98, 89, 80], [97, 89, 82], [95, 91, 87], [93, 90, 88], [96, 81], [94, 87], [90, 89], [92, 88], [95, 92], [88, 87], [88], [89], [90], [87], [91], [87], [87], [102], [102], [102], [102], [102], [102], [102], [102], [102], [102], [102], [102], [102], [102], [102], []]
letting durations = [[0], [8, 9, 10], [6, 8, 9], [5, 8, 9], [1, 9, 10], [2, 5, 10], [3, 4, 5], [3, 3, 8], [2, 7, 7], [1, 5, 9], [2, 7, 9], [4, 6, 9], [7, 8, 9], [1, 4, 6], [3, 7, 9], [7, 9, 10], [3, 4, 5], [2, 5, 10], [5, 8, 10], [4, 8, 9], [1, 5, 6], [1, 3, 7], [3, 6, 8], [8, 9, 10], [2, 4, 9], [5, 5, 9], [1, 5, 6], [2, 6, 7], [3, 6, 8], [4, 4, 5], [3, 4, 7], [2, 7, 10], [4, 6, 8], [2, 6, 8], [4, 5, 9], [4, 5, 7], [8, 9, 10], [2, 4, 7], [2, 4, 6], [3, 6, 8], [1, 3, 10], [1, 8, 9], [3, 7, 10], [4, 6, 10], [3, 3, 7], [1, 4, 10], [6, 7, 9], [2, 4, 9], [7, 9, 10], [1, 2, 7], [2, 4, 9], [3, 4, 7], [1, 2, 10], [1, 8, 10], [2, 4, 7], [1, 10, 10], [7, 7, 8], [3, 4, 8], [1, 7, 9], [2, 3, 7], [1, 6, 10], [2, 3, 6], [2, 3, 7], [2, 5, 10], [8, 8, 9], [3, 9, 10], [2, 9, 9], [3, 6, 9], [2, 5, 10], [7, 8, 9], [3, 4, 7], [7, 8, 10], [3, 5, 5], [1, 3, 4], [4, 9, 10], [6, 8, 8], [2, 3, 6], [2, 2, 3], [2, 6, 8], [2, 7, 7], [3, 6, 8], [5, 6, 8], [2, 2, 7], [4, 10, 10], [3, 7, 10], [2, 6, 10], [3, 3, 7], [5, 7, 7], [1, 3, 8], [4, 6, 8], [4, 6, 9], [2, 5, 6], [2, 8, 10], [2, 8, 10], [1, 7, 10], [3, 5, 9], [2, 5, 6], [3, 4, 5], [1, 10, 10], [3, 5, 6], [2, 7, 8], [0]]
letting resourceUsage = [[[0, 0, 0, 0]], [[3, 3, 0, 6], [3, 2, 0, 5], [3, 1, 0, 5]], [[5, 1, 8, 0], [4, 1, 0, 4], [4, 1, 0, 2]], [[2, 5, 5, 0], [2, 4, 4, 0], [2, 2, 0, 7]], [[2, 5, 0, 5], [2, 3, 0, 4], [2, 3, 0, 3]], [[3, 4, 0, 5], [3, 2, 0, 3], [3, 1, 6, 0]], [[4, 2, 0, 4], [4, 1, 0, 4], [3, 1, 4, 0]], [[3, 5, 0, 8], [3, 4, 5, 0], [3, 2, 0, 6]], [[4, 5, 5, 0], [3, 4, 5, 0], [3, 3, 0, 6]], [[4, 2, 4, 0], [4, 1, 3, 0], [3, 1, 2, 0]], [[1, 4, 0, 7], [1, 3, 2, 0], [1, 2, 0, 2]], [[5, 5, 0, 6], [4, 5, 6, 0], [4, 5, 2, 0]], [[2, 4, 8, 0], [2, 4, 7, 0], [2, 4, 3, 0]], [[5, 4, 4, 0], [3, 4, 0, 4], [1, 3, 3, 0]], [[5, 4, 0, 8], [5, 3, 0, 7], [5, 3, 2, 0]], [[4, 1, 6, 0], [4, 1, 0, 7], [3, 1, 0, 5]], [[4, 5, 0, 1], [2, 4, 9, 0], [2, 3, 0, 1]], [[4, 5, 4, 0], [4, 4, 3, 0], [4, 4, 1, 0]], [[5, 2, 6, 0], [5, 1, 0, 9], [5, 1, 0, 8]], [[5, 3, 0, 6], [5, 3, 0, 2], [5, 3, 3, 0]], [[4, 3, 0, 9], [3, 3, 3, 0], [2, 3, 3, 0]], [[3, 3, 0, 6], [2, 2, 5, 0], [2, 2, 4, 0]], [[2, 4, 0, 5], [2, 4, 4, 0], [2, 4, 0, 3]], [[3, 4, 0, 7], [1, 4, 0, 5], [1, 4, 0, 4]], [[2, 3, 3, 0], [1, 3, 3, 0], [1, 3, 0, 7]], [[5, 4, 5, 0], [4, 4, 0, 2], [3, 4, 0, 2]], [[5, 3, 10, 0], [4, 3, 0, 7], [3, 3, 0, 3]], [[4, 3, 0, 8], [3, 3, 0, 8], [3, 3, 0, 7]], [[3, 3, 0, 1], [3, 2, 0, 1], [3, 1, 9, 0]], [[4, 5, 7, 0], [4, 4, 0, 4], [4, 3, 0, 4]], [[4, 3, 9, 0], [3, 1, 0, 5], [2, 1, 0, 5]], [[3, 5, 4, 0], [3, 4, 0, 9], [3, 3, 0, 8]], [[4, 5, 0, 2], [4, 4, 7, 0], [3, 4, 0, 2]], [[2, 3, 0, 8], [2, 3, 0, 7], [1, 2, 3, 0]], [[4, 5, 0, 4], [4, 4, 5, 0], [4, 4, 0, 4]], [[3, 2, 0, 5], [3, 2, 0, 4], [3, 2, 8, 0]], [[3, 2, 4, 0], [2, 1, 2, 0], [2, 1, 0, 6]], [[3, 5, 6, 0], [3, 5, 0, 8], [2, 5, 0, 5]], [[5, 5, 0, 7], [3, 3, 10, 0], [3, 3, 9, 0]], [[3, 4, 0, 8], [3, 2, 0, 5], [1, 2, 6, 0]], [[4, 4, 0, 9], [4, 2, 0, 9], [4, 1, 0, 8]], [[4, 3, 0, 8], [3, 2, 4, 0], [1, 2, 1, 0]], [[2, 2, 0, 10], [1, 1, 4, 0], [1, 1, 0, 2]], [[3, 4, 2, 0], [2, 3, 2, 0], [2, 2, 2, 0]], [[3, 5, 0, 7], [3, 5, 7, 0], [1, 5, 0, 1]], [[3, 3, 7, 0], [2, 2, 4, 0], [1, 2, 0, 5]], [[3, 3, 0, 9], [3, 2, 0, 9], [1, 2, 0, 9]], [[3, 3, 10, 0], [1, 3, 10, 0], [1, 2, 0, 4]], [[3, 3, 3, 0], [2, 3, 2, 0], [2, 1, 0, 5]], [[4, 4, 0, 6], [2, 3, 5, 0], [2, 3, 0, 2]], [[5, 4, 0, 8], [3, 4, 0, 7], [3, 4, 3, 0]], [[5, 3, 6, 0], [4, 2, 4, 0], [4, 1, 2, 0]], [[4, 5, 0, 10], [3, 5, 0, 9], [3, 5, 8, 0]], [[4, 3, 2, 0], [3, 3, 0, 9], [3, 3, 1, 0]], [[4, 4, 9, 0], [3, 3, 0, 9], [3, 3, 0, 8]], [[3, 5, 0, 9], [1, 3, 0, 8], [1, 3, 1, 0]], [[4, 3, 7, 0], [2, 2, 0, 5], [1, 1, 0, 4]], [[3, 5, 0, 1], [1, 2, 7, 0], [1, 1, 6, 0]], [[4, 5, 0, 9], [4, 4, 7, 0], [4, 4, 0, 8]], [[4, 1, 5, 0], [3, 1, 3, 0], [2, 1, 0, 5]], [[4, 5, 0, 2], [4, 2, 5, 0], [4, 1, 4, 0]], [[2, 2, 5, 0], [1, 2, 3, 0], [1, 2, 0, 3]], [[5, 2, 0, 4], [5, 1, 4, 0], [5, 1, 0, 4]], [[2, 2, 0, 7], [2, 2, 0, 6], [2, 1, 6, 0]], [[1, 3, 0, 5], [1, 2, 0, 6], [1, 2, 0, 5]], [[5, 3, 0, 10], [2, 3, 0, 9], [1, 3, 3, 0]], [[2, 3, 0, 6], [2, 3, 8, 0], [2, 3, 0, 5]], [[1, 3, 0, 8], [1, 3, 0, 7], [1, 2, 7, 0]], [[4, 3, 0, 5], [2, 3, 0, 4], [2, 3, 0, 3]], [[3, 3, 6, 0], [2, 3, 5, 0], [2, 1, 5, 0]], [[2, 4, 5, 0], [2, 2, 4, 0], [2, 1, 3, 0]], [[2, 5, 0, 7], [2, 4, 0, 5], [2, 4, 0, 4]], [[3, 3, 5, 0], [2, 3, 0, 8], [1, 3, 3, 0]], [[5, 3, 0, 6], [4, 3, 5, 0], [2, 3, 0, 4]], [[4, 2, 5, 0], [3, 2, 4, 0], [3, 2, 0, 6]], [[1, 5, 0, 5], [1, 4, 0, 5], [1, 4, 3, 0]], [[2, 4, 0, 10], [2, 4, 0, 8], [1, 4, 6, 0]], [[5, 4, 0, 5], [4, 4, 9, 0], [4, 4, 8, 0]], [[1, 5, 8, 0], [1, 3, 0, 3], [1, 3, 6, 0]], [[3, 2, 8, 0], [3, 2, 7, 0], [3, 2, 0, 5]], [[2, 3, 0, 6], [2, 2, 6, 0], [2, 2, 0, 1]], [[3, 4, 0, 9], [1, 4, 5, 0], [1, 4, 0, 5]], [[2, 2, 9, 0], [2, 2, 0, 7], [2, 1, 9, 0]], [[4, 5, 0, 6], [3, 4, 2, 0], [3, 4, 0, 4]], [[5, 3, 0, 8], [4, 2, 0, 8], [4, 2, 0, 7]], [[3, 5, 0, 9], [2, 3, 3, 0], [1, 2, 0, 1]], [[2, 3, 10, 0], [2, 2, 0, 5], [1, 2, 0, 5]], [[2, 3, 0, 2], [2, 3, 7, 0], [2, 3, 0, 1]], [[2, 4, 8, 0], [2, 3, 7, 0], [2, 3, 6, 0]], [[5, 3, 0, 6], [3, 3, 7, 0], [3, 3, 6, 0]], [[4, 3, 3, 0], [3, 2, 0, 5], [3, 2, 0, 1]], [[4, 5, 10, 0], [3, 4, 8, 0], [3, 3, 0, 4]], [[4, 3, 0, 10], [3, 2, 0, 6], [3, 2, 0, 5]], [[4, 2, 0, 6], [3, 2, 0, 4], [3, 2, 2, 0]], [[2, 2, 6, 0], [1, 2, 0, 4], [1, 2, 0, 3]], [[1, 1, 7, 0], [1, 1, 0, 6], [1, 1, 5, 0]], [[2, 4, 0, 5], [2, 2, 7, 0], [2, 1, 0, 2]], [[2, 4, 0, 8], [2, 4, 0, 6], [1, 4, 0, 4]], [[5, 2, 8, 0], [4, 1, 7, 0], [3, 1, 0, 6]], [[2, 4, 9, 0], [2, 3, 0, 5], [2, 2, 3, 0]], [[1, 4, 9, 0], [1, 3, 7, 0], [1, 2, 5, 0]], [[0, 0, 0, 0]]]
